; benchmark generated from python API
(set-info :status unknown)
(declare-datatypes ((RealState 0)) (((RMk1 (rval1 Real)) (RMk2 (rval2 Real)))))
 (assert
 (forall ((|v17:0| Real) )(forall ((|v16:1| Real) )(forall ((|v15:2| Real) )(forall ((|v14:3| Real) )(forall ((|v13:4| Real) )(forall ((|v12:5| Real) )(exists ((|v11:6_st| RealState) (val!8316 Real) )(exists ((|v10:7_st| RealState) (val!8317 Real) )(exists ((|v9:8_st| RealState) (val!8318 Real) )(exists ((|v8:9_st| RealState) (val!8319 Real) )(exists ((|v7:10_st| RealState) (val!8320 Real) )(exists ((|v6:11_st| RealState) (val!8321 Real) )(forall ((|v5:12| Real) )(forall ((|v4:13| Real) )(forall ((|v3:14| Real) )(forall ((|v2:15| Real) )(forall ((|v1:16| Real) )(forall ((|v0:17| Real) )(let ((?x3189 (* 5.0 |v12:5|)))
 (let ((?x3134 (+ (+ (+ (* 14.0 |v14:3|) (* (- 4.0) |v0:17|)) (* 6.0 (rval2 |v8:9_st|))) ?x3189)))
 (let ((?x3020 (- 18.0)))
 (let ((?x746 (* ?x3020 |v5:12|)))
 (let (($x3259 (<= (+ (+ (+ |v13:4| (* 10.0 |v15:2|)) (* (- 9.0) |v17:0|)) ?x746) 14.0)))
 (let ((?x1646 (- 17.0)))
 (let ((?x1204 (* 18.0 |v12:5|)))
 (let ((?x2098 (+ (+ (+ (* 10.0 |v14:3|) (* 2.0 (rval2 |v9:8_st|))) (* (- 1.0) |v0:17|)) ?x1204)))
 (let ((?x2589 (- 20.0)))
 (let ((?x1685 (rval2 |v10:7_st|)))
 (let ((?x53 (* 6.0 ?x1685)))
 (let ((?x3426 (* 10.0 |v2:15|)))
 (let ((?x2670 (+ (+ (+ (* 10.0 (rval2 |v6:11_st|)) (* 2.0 (rval2 |v8:9_st|))) ?x3426) ?x53)))
 (let ((?x2811 (- 14.0)))
 (let ((?x2459 (+ (+ (* ?x3020 ?x1685) (* (- 16.0) |v17:0|)) (* (- 1.0) (rval2 |v6:11_st|)))))
 (let (($x1750 (and (<= (+ ?x2459 (* 20.0 (rval2 |v11:6_st|))) ?x2811) (and (<= ?x2670 ?x2589) (<= ?x2098 ?x1646)))))
 (let ((?x1586 (- 19.0)))
 (let ((?x1429 (* ?x1586 |v1:16|)))
 (let ((?x2270 (+ (+ (+ (* ?x3020 |v15:2|) (* (- 9.0) |v1:16|)) (* (- 9.0) |v13:4|)) ?x1429)))
 (let ((?x3122 (- 6.0)))
 (let ((?x970 (* 7.0 |v4:13|)))
 (let ((?x3190 (+ (+ (+ (* 4.0 |v17:0|) (* (- 3.0) (rval2 |v8:9_st|))) (* ?x1646 |v13:4|)) ?x970)))
 (let ((?x3500 (+ (+ (+ (* 14.0 (rval2 |v6:11_st|)) (* (- 9.0) |v0:17|)) (* 5.0 ?x1685)) (* (- 15.0) (rval2 |v6:11_st|)))))
 (let ((?x2855 (- 12.0)))
 (let ((?x1730 (* 10.0 |v14:3|)))
 (let ((?x1431 (- 2.0)))
 (let ((?x806 (* ?x1431 |v1:16|)))
 (let (($x2097 (<= (+ (+ (+ (* 2.0 (rval2 |v11:6_st|)) (* (- 9.0) |v2:15|)) ?x806) ?x1730) ?x2855)))
 (let (($x3111 (and (or $x2097 (<= ?x3500 12.0)) (or (<= ?x3190 ?x3122) (<= ?x2270 9.0)))))
 (let ((?x2873 (+ (+ (+ (* 17.0 ?x1685) (* ?x1646 |v12:5|)) (* (- 3.0) |v14:3|)) (* (- 1.0) |v17:0|))))
 (let ((?x863 (+ (+ (* (- 4.0) |v4:13|) (* (- 7.0) |v13:4|)) (* (- 15.0) (rval2 |v7:10_st|)))))
 (let ((?x314 (* 16.0 |v0:17|)))
 (let ((?x3017 (+ (+ (+ (* 12.0 |v1:16|) (* 15.0 (rval2 |v7:10_st|))) (* 6.0 |v12:5|)) ?x314)))
 (let ((?x3091 (- 11.0)))
 (let ((?x120 (* 9.0 |v14:3|)))
 (let ((?x3009 (+ (+ (+ (* (- 13.0) (rval2 |v8:9_st|)) (* 17.0 (rval2 |v8:9_st|))) ?x120) (* ?x1646 |v17:0|))))
 (let (($x615 (and (and (<= ?x3009 ?x3091) (<= ?x3017 20.0)) (and (<= (+ ?x863 (* 3.0 |v13:4|)) 6.0) (<= ?x2873 ?x1646)))))
 (let ((?x3195 (- 13.0)))
 (let ((?x1409 (+ (+ (+ (* 15.0 |v3:14|) (* (- 8.0) |v3:14|)) (* (- 16.0) |v1:16|)) (* 19.0 |v3:14|))))
 (let (($x2064 (<= ?x1409 ?x3195)))
 (let ((?x589 (+ (+ (+ (* 14.0 |v14:3|) (* (- 3.0) (rval2 |v7:10_st|))) (* 3.0 |v2:15|)) |v3:14|)))
 (let (($x3001 (<= (+ (+ (+ (* ?x2589 |v12:5|) ?x1429) (* (- 16.0) |v17:0|)) (* 4.0 |v13:4|)) 16.0)))
 (let ((?x2329 (rval2 |v11:6_st|)))
 (let ((?x1859 (* 12.0 ?x2329)))
 (let ((?x299 (+ (+ (+ (* 7.0 |v17:0|) (* 5.0 |v17:0|)) (* 18.0 (rval2 |v6:11_st|))) ?x1859)))
 (let ((?x2420 (+ (+ (+ (* ?x2589 (rval2 |v8:9_st|)) (* 15.0 |v12:5|)) (* (- 9.0) |v15:2|)) (* (- 3.0) |v17:0|))))
 (let (($x1658 (or (and (or (<= ?x2420 ?x1431) (<= ?x299 ?x2589)) (and $x3001 (<= ?x589 ?x3020))) $x2064)))
 (let ((?x2141 (+ (+ (+ |v4:13| (* 5.0 (rval2 |v9:8_st|))) (* (- 7.0) |v13:4|)) (* (- 4.0) (rval2 |v6:11_st|)))))
 (let ((?x2910 (- 8.0)))
 (let ((?x1974 (* 16.0 ?x1685)))
 (let (($x3447 (<= (+ (+ (+ (* 4.0 ?x2329) (* ?x3020 |v17:0|)) (* 19.0 ?x2329)) ?x1974) ?x2910)))
 (let ((?x3141 (- 3.0)))
 (let ((?x3237 (* ?x1646 |v13:4|)))
 (let (($x3119 (<= (+ (+ (+ (* 15.0 |v16:1|) (* ?x2910 ?x1685)) (* 7.0 ?x2329)) ?x3237) ?x3141)))
 (let ((?x2114 (- 4.0)))
 (let ((?x2016 (* ?x2114 |v0:17|)))
 (let (($x2317 (<= (+ (+ (+ (* ?x1431 |v16:1|) (* (- 5.0) |v14:3|)) (* ?x3091 ?x1685)) ?x2016) ?x1586)))
 (let ((?x3386 (- 16.0)))
 (let ((?x3235 (+ (+ (+ |v12:5| (* 8.0 (rval2 |v7:10_st|))) (* (- 5.0) (rval2 |v8:9_st|))) (* ?x3020 |v12:5|))))
 (let ((?x199 (* 9.0 |v4:13|)))
 (let (($x2086 (<= (+ (+ (+ (* ?x3195 |v2:15|) (rval2 |v8:9_st|)) (* ?x3195 |v5:12|)) ?x199) 10.0)))
 (let (($x1817 (or (or (and $x2086 (<= ?x3235 ?x3386)) (or $x2317 $x3119)) (or $x3447 (<= ?x2141 ?x3091)))))
 (let (($x126 (and (or (and $x1817 $x1658) (or (or $x615 $x3111) (and $x1750 $x3259))) (<= ?x3134 7.0))))
 (let (($x785 (not (= |v6:11_st| (RMk1 val!8321)))))
 (let (($x1017 (not (= |v7:10_st| (RMk1 val!8320)))))
 (let (($x2912 (not (= |v8:9_st| (RMk1 val!8319)))))
 (let (($x2702 (not (= |v9:8_st| (RMk1 val!8318)))))
 (let (($x1978 (not (= |v10:7_st| (RMk1 val!8317)))))
 (let (($x891 (not (= |v11:6_st| (RMk1 val!8316)))))
 (and $x891 $x1978 $x2702 $x2912 $x1017 $x785 $x126)))))))))))))))))))))))))))))))))))))))))))))))))))))))))))))))))))))))
 )
 )
 )
 )
 )
 )
 )
 )
 )
 )
 )
 )
 )
 )
 )
 )
 )
 )
(check-sat)
